     Program PWSCF v.6.2 (svn rev. 13949:13950) starts on 24Oct2021 at 11:49:40

     R & G space division:  proc/nbgrp/npool/nimage =       4
     Reading input from headeradd_supercell-00007.in

     Current dimensions of program PWSCF are:
     Max number of different atomic species (ntypx) = 10
     Max number of k-points (npk) =  40000
     Max angular momentum in pseudopotentials (lmaxx) =  3
     Message from routine iosys:
     minimal I/O required, wf_collect reset to FALSE
               file Si.pbe-n-kjpaw_psl.0.1.UPF: wavefunction(s)  3S renormalized

     Subspace diagonalization in iterative solution of the eigenvalue problem:
     a serial algorithm will be used

     bravais-lattice index     =            0
     lattice parameter (alat)  =      10.3296  a.u.
     unit-cell volume          =    1102.1598 (a.u.)^3
     number of atoms/cell      =            8
     number of atomic types    =            1
     number of electrons       =        32.00
     number of Kohn-Sham states=           16
     kinetic-energy cutoff     =      70.0000  Ry
     charge density cutoff     =     280.0000  Ry
     convergence threshold     =      1.0E-09
     mixing beta               =       0.7000
     number of iterations used =            8  plain     mixing
     Exchange-correlation      =  SLA  PW   PBX  PBC ( 1  4  3  4 0 0)

     celldm(1)=  10.329553  celldm(2)=   0.000000  celldm(3)=   0.000000
     celldm(4)=   0.000000  celldm(5)=   0.000000  celldm(6)=   0.000000

     crystal axes: (cart. coord. in units of alat)
               a(1) = (   1.000000   0.000000   0.000000 )
               a(2) = (   0.000000   1.000000   0.000000 )
               a(3) = (   0.000000   0.000000   1.000000 )

     reciprocal axes: (cart. coord. in units 2 pi/alat)
               b(1) = (  1.000000  0.000000  0.000000 )
               b(2) = (  0.000000  1.000000  0.000000 )
               b(3) = (  0.000000  0.000000  1.000000 )

     PseudoPot. # 1 for Si read from file:
     /home/uezono/pseudo/Si.pbe-n-kjpaw_psl.0.1.UPF
     MD5 check sum: 0810ef13ebffcf5dbabd57b297315270
     Pseudo is Projector augmented-wave + core cor, Zval =  4.0
     Generated using "atomic" code by A. Dal Corso  v.5.0.2 svn rev. 9415
     Shape of augmentation charge: PSQ
     Using radial grid of 1141 points,  4 beta functions with:
                l(1) =   0
                l(2) =   0
                l(3) =   1
                l(4) =   1
     Q(r) pseudized with 0 coefficients

     atomic species   valence    mass     pseudopotential
        Si             4.00    28.08550     Si( 1.00)

     No symmetry found

   Cartesian axes

     site n.     atom                  positions (alat units)
         1           Si  tau(   1) = (   0.8808086   0.8750000   0.8750000  )
         2           Si  tau(   2) = (   0.8750000   0.3750000   0.3750000  )
         3           Si  tau(   3) = (   0.3708927   0.8708927   0.3750000  )
         4           Si  tau(   4) = (   0.3750000   0.3750000   0.8750000  )
         5           Si  tau(   5) = (   0.1250000   0.1250000   0.1250000  )
         6           Si  tau(   6) = (   0.1250000   0.6250000   0.6250000  )
         7           Si  tau(   7) = (   0.6250000   0.1250000   0.6250000  )
         8           Si  tau(   8) = (   0.6250000   0.6250000   0.1250000  )

     number of k points=    32
                       cart. coord. in units 2pi/alat
        k(    1) = (   0.1250000   0.1250000   0.1250000), wk =   0.0625000
        k(    2) = (   0.1250000   0.1250000   0.3750000), wk =   0.0625000
        k(    3) = (   0.1250000   0.3750000   0.3750000), wk =   0.0625000
        k(    4) = (   0.3750000   0.3750000   0.3750000), wk =   0.0625000
        k(    5) = (  -0.1250000  -0.1250000   0.1250000), wk =   0.0625000
        k(    6) = (  -0.1250000   0.1250000  -0.1250000), wk =   0.0625000
        k(    7) = (   0.1250000  -0.1250000  -0.1250000), wk =   0.0625000
        k(    8) = (  -0.1250000  -0.1250000   0.3750000), wk =   0.0625000
        k(    9) = (  -0.1250000   0.1250000  -0.3750000), wk =   0.0625000
        k(   10) = (   0.1250000  -0.1250000  -0.3750000), wk =   0.0625000
        k(   11) = (   0.3750000  -0.1250000   0.1250000), wk =   0.0625000
        k(   12) = (  -0.3750000  -0.1250000  -0.1250000), wk =   0.0625000
        k(   13) = (   0.3750000   0.1250000  -0.1250000), wk =   0.0625000
        k(   14) = (  -0.3750000   0.1250000   0.1250000), wk =   0.0625000
        k(   15) = (  -0.1250000   0.3750000   0.1250000), wk =   0.0625000
        k(   16) = (  -0.1250000  -0.3750000  -0.1250000), wk =   0.0625000
        k(   17) = (   0.1250000   0.3750000  -0.1250000), wk =   0.0625000
        k(   18) = (   0.1250000  -0.3750000   0.1250000), wk =   0.0625000
        k(   19) = (  -0.1250000  -0.3750000   0.3750000), wk =   0.0625000
        k(   20) = (  -0.1250000   0.3750000  -0.3750000), wk =   0.0625000
        k(   21) = (   0.1250000  -0.3750000  -0.3750000), wk =   0.0625000
        k(   22) = (   0.3750000   0.1250000  -0.3750000), wk =   0.0625000
        k(   23) = (  -0.3750000  -0.1250000  -0.3750000), wk =   0.0625000
        k(   24) = (   0.3750000  -0.1250000   0.3750000), wk =   0.0625000
        k(   25) = (  -0.3750000   0.1250000   0.3750000), wk =   0.0625000
        k(   26) = (   0.3750000  -0.3750000   0.1250000), wk =   0.0625000
        k(   27) = (  -0.3750000  -0.3750000  -0.1250000), wk =   0.0625000
        k(   28) = (   0.3750000   0.3750000  -0.1250000), wk =   0.0625000
        k(   29) = (  -0.3750000   0.3750000   0.1250000), wk =   0.0625000
        k(   30) = (  -0.3750000  -0.3750000   0.3750000), wk =   0.0625000
        k(   31) = (  -0.3750000   0.3750000  -0.3750000), wk =   0.0625000
        k(   32) = (   0.3750000  -0.3750000  -0.3750000), wk =   0.0625000

     Initial potential from superposition of free atoms

     starting charge   31.99553, renormalised to   32.00000
     Starting wfc are   32 randomized atomic wfcs
     Checking if some PAW data can be deallocated...

     Self-consistent Calculation

     iteration #  1     ecut=    70.00 Ry     beta= 0.70
     Davidson diagonalization with overlap
     ethr =  1.00E-02,  avg # of iterations =  2.0

     Threshold (ethr) on eigenvalues was too large:
     Diagonalizing with lowered threshold

     Davidson diagonalization with overlap
     ethr =  6.98E-04,  avg # of iterations =  1.0

     total energy              =    -373.80695166 Ry
     Harris-Foulkes estimate   =    -373.85908102 Ry
     estimated scf accuracy    <       0.22079085 Ry

[...]

     total energy              =    -373.81608984 Ry
     Harris-Foulkes estimate   =    -373.81608987 Ry
     estimated scf accuracy    <          6.7E-09 Ry

     iteration #  8     ecut=    70.00 Ry     beta= 0.70
     Davidson diagonalization with overlap
     ethr =  2.09E-11,  avg # of iterations =  2.6

     End of self-consistent calculation

          k = 0.1250 0.1250 0.1250 ( 10891 PWs)   bands (ev):

    -5.6266  -2.6259  -2.5823  -2.5611  -0.8100  -0.7769  -0.7578   2.6254
     2.6410   2.6608   3.3540   3.3678   3.3876   4.4213   5.7002   5.7407

[...]

          k =-0.1250-0.1250 0.1250 ( 10891 PWs)   bands (ev):

[...]

          k =-0.3750 0.3750-0.3750 ( 10927 PWs)   bands (ev):

[...]

          k = 0.3750-0.3750-0.3750 ( 10927 PWs)   bands (ev):

    -4.1623  -3.4999  -3.4553  -3.4181  -0.6887  -0.6552  -0.6235   0.1127
     3.7018   3.7501   3.7743   4.4610   4.4763   4.4972   4.9338   4.9583

     highest occupied level (ev):     5.7485

!    total energy              =    -373.81608985 Ry
     Harris-Foulkes estimate   =    -373.81608985 Ry
     estimated scf accuracy    <          3.7E-10 Ry

     total all-electron energy =     -4640.583034 Ry

     The total energy is the sum of the following terms:

     one-electron contribution =      22.32167557 Ry
     hartree contribution      =       4.46446803 Ry
     xc contribution           =     -48.93020656 Ry
     ewald contribution        =     -66.74751600 Ry
     one-center paw contrib.   =    -284.92451087 Ry

     convergence has been achieved in   8 iterations

     Forces acting on atoms (cartesian axes, Ry/au):

     atom    1 type  1   force =    -0.01698145    0.00148767   -0.00001243
     atom    2 type  1   force =    -0.00288866   -0.00078488    0.00000562
     atom    3 type  1   force =     0.01257883    0.01147307   -0.00058846
     atom    4 type  1   force =     0.00259484   -0.00078439   -0.00000479
     atom    5 type  1   force =     0.00326853    0.00206942    0.00298249
     atom    6 type  1   force =    -0.00097343   -0.00799087    0.00133020
     atom    7 type  1   force =    -0.00068510   -0.00737642   -0.00103003
     atom    8 type  1   force =     0.00308643    0.00190640   -0.00268261

     Total force =     0.027637     Total SCF correction =     0.000020

     Computing stress (Cartesian axis) and pressure

          total   stress  (Ry/bohr**3)                   (kbar)     P=    0.29
   0.00000081   0.00000073  -0.00001349          0.12      0.11     -1.98
   0.00000073   0.00000223   0.00000557          0.11      0.33      0.82
  -0.00001349   0.00000557   0.00000290         -1.98      0.82      0.43

     General routines

     Parallel routines

   This run was terminated on:  11:50: 5  24Oct2021

   JOB DONE.
Note: The following floating-point exceptions are signalling: IEEE_UNDERFLOW_FLAG IEEE_DENORMAL