     Program PWSCF v.6.2 (svn rev. 13949:13950) starts on 24Oct2021 at 11:51:20

     R & G space division:  proc/nbgrp/npool/nimage =       4
     Reading input from headeradd_supercell-00012.in

     Current dimensions of program PWSCF are:
     Max number of different atomic species (ntypx) = 10
     Max number of k-points (npk) =  40000
     Max angular momentum in pseudopotentials (lmaxx) =  3
     Message from routine iosys:
     minimal I/O required, wf_collect reset to FALSE
               file Si.pbe-n-kjpaw_psl.0.1.UPF: wavefunction(s)  3S renormalized

     Subspace diagonalization in iterative solution of the eigenvalue problem:
     a serial algorithm will be used

     bravais-lattice index     =            0
     lattice parameter (alat)  =      10.3296  a.u.
     unit-cell volume          =    1102.1598 (a.u.)^3
     number of atoms/cell      =            8
     number of atomic types    =            1
     number of electrons       =        32.00
     number of Kohn-Sham states=           16
     kinetic-energy cutoff     =      70.0000  Ry
     charge density cutoff     =     280.0000  Ry
     convergence threshold     =      1.0E-09
     mixing beta               =       0.7000
     number of iterations used =            8  plain     mixing
     Exchange-correlation      =  SLA  PW   PBX  PBC ( 1  4  3  4 0 0)

     celldm(1)=  10.329553  celldm(2)=   0.000000  celldm(3)=   0.000000
     celldm(4)=   0.000000  celldm(5)=   0.000000  celldm(6)=   0.000000

     crystal axes: (cart. coord. in units of alat)
               a(1) = (   1.000000   0.000000   0.000000 )
               a(2) = (   0.000000   1.000000   0.000000 )
               a(3) = (   0.000000   0.000000   1.000000 )

     reciprocal axes: (cart. coord. in units 2 pi/alat)
               b(1) = (  1.000000  0.000000  0.000000 )
               b(2) = (  0.000000  1.000000  0.000000 )
               b(3) = (  0.000000  0.000000  1.000000 )

     PseudoPot. # 1 for Si read from file:
     /home/uezono/pseudo/Si.pbe-n-kjpaw_psl.0.1.UPF
     MD5 check sum: 0810ef13ebffcf5dbabd57b297315270
     Pseudo is Projector augmented-wave + core cor, Zval =  4.0
     Generated using "atomic" code by A. Dal Corso  v.5.0.2 svn rev. 9415
     Shape of augmentation charge: PSQ
     Using radial grid of 1141 points,  4 beta functions with:
                l(1) =   0
                l(2) =   0
                l(3) =   1
                l(4) =   1
     Q(r) pseudized with 0 coefficients

     atomic species   valence    mass     pseudopotential
        Si             4.00    28.08550     Si( 1.00)

      4 Sym. Ops., with inversion, found

   Cartesian axes

     site n.     atom                  positions (alat units)
         1           Si  tau(   1) = (   0.8808086   0.8750000   0.8750000  )
         2           Si  tau(   2) = (   0.8750000   0.3750000   0.3750000  )
         3           Si  tau(   3) = (   0.3750000   0.8750000   0.3750000  )
         4           Si  tau(   4) = (   0.3750000   0.3750000   0.8750000  )
         5           Si  tau(   5) = (   0.1191914   0.1250000   0.1250000  )
         6           Si  tau(   6) = (   0.1250000   0.6250000   0.6250000  )
         7           Si  tau(   7) = (   0.6250000   0.1250000   0.6250000  )
         8           Si  tau(   8) = (   0.6250000   0.6250000   0.1250000  )

     number of k points=    20
                       cart. coord. in units 2pi/alat
        k(    1) = (   0.1250000   0.1250000   0.1250000), wk =   0.0625000
        k(    2) = (   0.1250000   0.1250000   0.3750000), wk =   0.1250000
        k(    3) = (   0.1250000   0.3750000   0.3750000), wk =   0.0625000
        k(    4) = (   0.3750000   0.3750000   0.3750000), wk =   0.0625000
        k(    5) = (   0.1250000   0.1250000  -0.1250000), wk =   0.1250000
        k(    6) = (  -0.1250000   0.1250000   0.1250000), wk =   0.0625000
        k(    7) = (   0.1250000   0.1250000  -0.3750000), wk =   0.1250000
        k(    8) = (   0.1250000  -0.1250000   0.3750000), wk =   0.1250000
        k(    9) = (  -0.1250000   0.1250000   0.3750000), wk =   0.1250000
        k(   10) = (   0.3750000  -0.1250000   0.1250000), wk =   0.1250000
        k(   11) = (  -0.3750000  -0.1250000  -0.1250000), wk =   0.0625000
        k(   12) = (  -0.3750000   0.1250000   0.1250000), wk =   0.0625000
        k(   13) = (   0.3750000   0.1250000  -0.3750000), wk =   0.1250000
        k(   14) = (  -0.3750000  -0.1250000  -0.3750000), wk =   0.1250000
        k(   15) = (   0.3750000  -0.1250000   0.3750000), wk =   0.1250000
        k(   16) = (  -0.3750000   0.1250000   0.3750000), wk =   0.1250000
        k(   17) = (  -0.1250000   0.3750000   0.3750000), wk =   0.0625000
        k(   18) = (  -0.1250000  -0.3750000   0.3750000), wk =   0.1250000
        k(   19) = (   0.3750000   0.3750000  -0.3750000), wk =   0.1250000
        k(   20) = (  -0.3750000   0.3750000   0.3750000), wk =   0.0625000

     Initial potential from superposition of free atoms

     starting charge   31.99553, renormalised to   32.00000
     Starting wfc are   32 randomized atomic wfcs
     Checking if some PAW data can be deallocated...

     Self-consistent Calculation

     iteration #  1     ecut=    70.00 Ry     beta= 0.70
     Davidson diagonalization with overlap
     ethr =  1.00E-02,  avg # of iterations =  2.0

     Threshold (ethr) on eigenvalues was too large:
     Diagonalizing with lowered threshold

     Davidson diagonalization with overlap
     ethr =  6.98E-04,  avg # of iterations =  1.0

     total energy              =    -373.80674185 Ry
     Harris-Foulkes estimate   =    -373.85881949 Ry
     estimated scf accuracy    <       0.22087457 Ry

[...]

     total energy              =    -373.81588921 Ry
     Harris-Foulkes estimate   =    -373.81588923 Ry
     estimated scf accuracy    <          6.0E-09 Ry

     iteration #  8     ecut=    70.00 Ry     beta= 0.70
     Davidson diagonalization with overlap
     ethr =  1.86E-11,  avg # of iterations =  2.9

     End of self-consistent calculation

          k = 0.1250 0.1250 0.1250 ( 10891 PWs)   bands (ev):

    -5.6257  -2.6282  -2.5861  -2.5668  -0.7871  -0.7819  -0.7507   2.6032
     2.6305   2.6378   3.3626   3.3750   3.4090   4.3814   5.6985   5.7874

[...]

          k =-0.1250 0.1250 0.1250 ( 10891 PWs)   bands (ev):

[...]

          k = 0.3750 0.3750-0.3750 ( 10927 PWs)   bands (ev):

[...]

          k =-0.3750 0.3750 0.3750 ( 10927 PWs)   bands (ev):

    -4.1563  -3.5169  -3.4349  -3.4318  -0.7027  -0.6481  -0.5948   0.0965
     3.6770   3.7457   3.7625   4.4720   4.4885   4.5109   4.9081   4.9875

     highest occupied level (ev):     5.7880

!    total energy              =    -373.81588922 Ry
     Harris-Foulkes estimate   =    -373.81588921 Ry
     estimated scf accuracy    <          2.8E-10 Ry

     total all-electron energy =     -4640.582833 Ry

     The total energy is the sum of the following terms:

     one-electron contribution =      22.32269478 Ry
     hartree contribution      =       4.46393873 Ry
     xc contribution           =     -48.93022053 Ry
     ewald contribution        =     -66.74775758 Ry
     one-center paw contrib.   =    -284.92454461 Ry

     convergence has been achieved in   8 iterations

     Forces acting on atoms (cartesian axes, Ry/au):

     atom    1 type  1   force =    -0.02038157   -0.00317397   -0.00317397
     atom    2 type  1   force =    -0.00619074    0.00294141    0.00294141
     atom    3 type  1   force =    -0.00285646    0.00272757   -0.00272221
     atom    4 type  1   force =    -0.00285646   -0.00272221    0.00272757
     atom    5 type  1   force =     0.02038157    0.00317397    0.00317397
     atom    6 type  1   force =     0.00619074   -0.00294141   -0.00294141
     atom    7 type  1   force =     0.00285646   -0.00272757    0.00272221
     atom    8 type  1   force =     0.00285646    0.00272221   -0.00272757

     Total force =     0.032778     Total SCF correction =     0.000005

     Computing stress (Cartesian axis) and pressure

          total   stress  (Ry/bohr**3)                   (kbar)     P=    0.33
   0.00000015   0.00000025   0.00000025          0.02      0.04      0.04
   0.00000025   0.00000325   0.00003864          0.04      0.48      5.68
   0.00000025   0.00003864   0.00000325          0.04      5.68      0.48

     General routines

     Parallel routines

   This run was terminated on:  11:51:38  24Oct2021

   JOB DONE.
Note: The following floating-point exceptions are signalling: IEEE_UNDERFLOW_FLAG IEEE_DENORMAL