     Program PWSCF v.6.2 (svn rev. 13949:13950) starts on 24Oct2021 at 11:50:22

     R & G space division:  proc/nbgrp/npool/nimage =       4
     Reading input from headeradd_supercell-00009.in

     Current dimensions of program PWSCF are:
     Max number of different atomic species (ntypx) = 10
     Max number of k-points (npk) =  40000
     Max angular momentum in pseudopotentials (lmaxx) =  3
     Message from routine iosys:
     minimal I/O required, wf_collect reset to FALSE
               file Si.pbe-n-kjpaw_psl.0.1.UPF: wavefunction(s)  3S renormalized

     Subspace diagonalization in iterative solution of the eigenvalue problem:
     a serial algorithm will be used

     bravais-lattice index     =            0
     lattice parameter (alat)  =      10.3296  a.u.
     unit-cell volume          =    1102.1598 (a.u.)^3
     number of atoms/cell      =            8
     number of atomic types    =            1
     number of electrons       =        32.00
     number of Kohn-Sham states=           16
     kinetic-energy cutoff     =      70.0000  Ry
     charge density cutoff     =     280.0000  Ry
     convergence threshold     =      1.0E-09
     mixing beta               =       0.7000
     number of iterations used =            8  plain     mixing
     Exchange-correlation      =  SLA  PW   PBX  PBC ( 1  4  3  4 0 0)

     celldm(1)=  10.329553  celldm(2)=   0.000000  celldm(3)=   0.000000
     celldm(4)=   0.000000  celldm(5)=   0.000000  celldm(6)=   0.000000

     crystal axes: (cart. coord. in units of alat)
               a(1) = (   1.000000   0.000000   0.000000 )
               a(2) = (   0.000000   1.000000   0.000000 )
               a(3) = (   0.000000   0.000000   1.000000 )

     reciprocal axes: (cart. coord. in units 2 pi/alat)
               b(1) = (  1.000000  0.000000  0.000000 )
               b(2) = (  0.000000  1.000000  0.000000 )
               b(3) = (  0.000000  0.000000  1.000000 )

     PseudoPot. # 1 for Si read from file:
     /home/uezono/pseudo/Si.pbe-n-kjpaw_psl.0.1.UPF
     MD5 check sum: 0810ef13ebffcf5dbabd57b297315270
     Pseudo is Projector augmented-wave + core cor, Zval =  4.0
     Generated using "atomic" code by A. Dal Corso  v.5.0.2 svn rev. 9415
     Shape of augmentation charge: PSQ
     Using radial grid of 1141 points,  4 beta functions with:
                l(1) =   0
                l(2) =   0
                l(3) =   1
                l(4) =   1
     Q(r) pseudized with 0 coefficients

     atomic species   valence    mass     pseudopotential
        Si             4.00    28.08550     Si( 1.00)

     No symmetry found

   Cartesian axes

     site n.     atom                  positions (alat units)
         1           Si  tau(   1) = (   0.8808086   0.8750000   0.8750000  )
         2           Si  tau(   2) = (   0.8750000   0.3750000   0.3750000  )
         3           Si  tau(   3) = (   0.3750000   0.8750000   0.3750000  )
         4           Si  tau(   4) = (   0.3750000   0.3750000   0.8750000  )
         5           Si  tau(   5) = (   0.1250000   0.1308086   0.1250000  )
         6           Si  tau(   6) = (   0.1250000   0.6250000   0.6250000  )
         7           Si  tau(   7) = (   0.6250000   0.1250000   0.6250000  )
         8           Si  tau(   8) = (   0.6250000   0.6250000   0.1250000  )

     number of k points=    32
                       cart. coord. in units 2pi/alat
        k(    1) = (   0.1250000   0.1250000   0.1250000), wk =   0.0625000
        k(    2) = (   0.1250000   0.1250000   0.3750000), wk =   0.0625000
        k(    3) = (   0.1250000   0.3750000   0.3750000), wk =   0.0625000
        k(    4) = (   0.3750000   0.3750000   0.3750000), wk =   0.0625000
        k(    5) = (  -0.1250000  -0.1250000   0.1250000), wk =   0.0625000
        k(    6) = (  -0.1250000   0.1250000  -0.1250000), wk =   0.0625000
        k(    7) = (   0.1250000  -0.1250000  -0.1250000), wk =   0.0625000
        k(    8) = (  -0.1250000  -0.1250000   0.3750000), wk =   0.0625000
        k(    9) = (  -0.1250000   0.1250000  -0.3750000), wk =   0.0625000
        k(   10) = (   0.1250000  -0.1250000  -0.3750000), wk =   0.0625000
        k(   11) = (   0.3750000  -0.1250000   0.1250000), wk =   0.0625000
        k(   12) = (  -0.3750000  -0.1250000  -0.1250000), wk =   0.0625000
        k(   13) = (   0.3750000   0.1250000  -0.1250000), wk =   0.0625000
        k(   14) = (  -0.3750000   0.1250000   0.1250000), wk =   0.0625000
        k(   15) = (  -0.1250000   0.3750000   0.1250000), wk =   0.0625000
        k(   16) = (  -0.1250000  -0.3750000  -0.1250000), wk =   0.0625000
        k(   17) = (   0.1250000   0.3750000  -0.1250000), wk =   0.0625000
        k(   18) = (   0.1250000  -0.3750000   0.1250000), wk =   0.0625000
        k(   19) = (  -0.1250000  -0.3750000   0.3750000), wk =   0.0625000
        k(   20) = (  -0.1250000   0.3750000  -0.3750000), wk =   0.0625000
        k(   21) = (   0.1250000  -0.3750000  -0.3750000), wk =   0.0625000
        k(   22) = (   0.3750000   0.1250000  -0.3750000), wk =   0.0625000
        k(   23) = (  -0.3750000  -0.1250000  -0.3750000), wk =   0.0625000
        k(   24) = (   0.3750000  -0.1250000   0.3750000), wk =   0.0625000
        k(   25) = (  -0.3750000   0.1250000   0.3750000), wk =   0.0625000
        k(   26) = (   0.3750000  -0.3750000   0.1250000), wk =   0.0625000
        k(   27) = (  -0.3750000  -0.3750000  -0.1250000), wk =   0.0625000
        k(   28) = (   0.3750000   0.3750000  -0.1250000), wk =   0.0625000
        k(   29) = (  -0.3750000   0.3750000   0.1250000), wk =   0.0625000
        k(   30) = (  -0.3750000  -0.3750000   0.3750000), wk =   0.0625000
        k(   31) = (  -0.3750000   0.3750000  -0.3750000), wk =   0.0625000
        k(   32) = (   0.3750000  -0.3750000  -0.3750000), wk =   0.0625000

     Initial potential from superposition of free atoms

     starting charge   31.99553, renormalised to   32.00000
     Starting wfc are   32 randomized atomic wfcs
     Checking if some PAW data can be deallocated...

     Self-consistent Calculation

     iteration #  1     ecut=    70.00 Ry     beta= 0.70
     Davidson diagonalization with overlap
     ethr =  1.00E-02,  avg # of iterations =  2.0

     Threshold (ethr) on eigenvalues was too large:
     Diagonalizing with lowered threshold

     Davidson diagonalization with overlap
     ethr =  6.98E-04,  avg # of iterations =  1.0

     total energy              =    -373.80717703 Ry
     Harris-Foulkes estimate   =    -373.85928685 Ry
     estimated scf accuracy    <       0.22077113 Ry

[...]

     total energy              =    -373.81630693 Ry
     Harris-Foulkes estimate   =    -373.81630695 Ry
     estimated scf accuracy    <          5.1E-09 Ry

     iteration #  8     ecut=    70.00 Ry     beta= 0.70
     Davidson diagonalization with overlap
     ethr =  1.61E-11,  avg # of iterations =  2.8

     End of self-consistent calculation

          k = 0.1250 0.1250 0.1250 ( 10891 PWs)   bands (ev):

    -5.6258  -2.6194  -2.5899  -2.5604  -0.8089  -0.7799  -0.7520   2.6259
     2.6395   2.6539   3.3515   3.3715   3.3937   4.4132   5.6852   5.7635

[...]

          k =-0.1250-0.1250 0.1250 ( 10891 PWs)   bands (ev):

[...]

          k =-0.3750 0.3750-0.3750 ( 10927 PWs)   bands (ev):

[...]

          k = 0.3750-0.3750-0.3750 ( 10927 PWs)   bands (ev):

    -4.1566  -3.4942  -3.4546  -3.4327  -0.6698  -0.6611  -0.6149   0.0973
     3.7005   3.7306   3.7583   4.4709   4.4927   4.5025   4.9278   4.9694

     highest occupied level (ev):     5.7662

!    total energy              =    -373.81630693 Ry
     Harris-Foulkes estimate   =    -373.81630693 Ry
     estimated scf accuracy    <          2.8E-10 Ry

     total all-electron energy =     -4640.583251 Ry

     The total energy is the sum of the following terms:

     one-electron contribution =      22.32411216 Ry
     hartree contribution      =       4.46328903 Ry
     xc contribution           =     -48.93000758 Ry
     ewald contribution        =     -66.74925558 Ry
     one-center paw contrib.   =    -284.92444495 Ry

     convergence has been achieved in   8 iterations

     Forces acting on atoms (cartesian axes, Ry/au):

     atom    1 type  1   force =    -0.01326030    0.00419398    0.00302929
     atom    2 type  1   force =    -0.00504694    0.00407469    0.00294799
     atom    3 type  1   force =    -0.00161677    0.00396287   -0.00270996
     atom    4 type  1   force =     0.00404933    0.00407992   -0.00293757
     atom    5 type  1   force =     0.00385692   -0.01348032    0.00263645
     atom    6 type  1   force =     0.00408027   -0.00183347   -0.00295539
     atom    7 type  1   force =     0.00397109   -0.00482749    0.00271665
     atom    8 type  1   force =     0.00396639    0.00382981   -0.00272745

     Total force =     0.025245     Total SCF correction =     0.000017

     Computing stress (Cartesian axis) and pressure

          total   stress  (Ry/bohr**3)                   (kbar)     P=    0.21
   0.00000113  -0.00000034  -0.00001961          0.17     -0.05     -2.88
  -0.00000034   0.00000110   0.00001849         -0.05      0.16      2.72
  -0.00001961   0.00001849   0.00000207         -2.88      2.72      0.30

     General routines

     Parallel routines

   This run was terminated on:  11:50:47  24Oct2021

   JOB DONE.
Note: The following floating-point exceptions are signalling: IEEE_UNDERFLOW_FLAG IEEE_DENORMAL