     Program PWSCF v.6.2 (svn rev. 13949:13950) starts on 24Oct2021 at 11:52:21

     R & G space division:  proc/nbgrp/npool/nimage =       4
     Reading input from headeradd_supercell-00015.in

     Current dimensions of program PWSCF are:
     Max number of different atomic species (ntypx) = 10
     Max number of k-points (npk) =  40000
     Max angular momentum in pseudopotentials (lmaxx) =  3
     Message from routine iosys:
     minimal I/O required, wf_collect reset to FALSE
               file Si.pbe-n-kjpaw_psl.0.1.UPF: wavefunction(s)  3S renormalized

     Subspace diagonalization in iterative solution of the eigenvalue problem:
     a serial algorithm will be used

     bravais-lattice index     =            0
     lattice parameter (alat)  =      10.3296  a.u.
     unit-cell volume          =    1102.1598 (a.u.)^3
     number of atoms/cell      =            8
     number of atomic types    =            1
     number of electrons       =        32.00
     number of Kohn-Sham states=           16
     kinetic-energy cutoff     =      70.0000  Ry
     charge density cutoff     =     280.0000  Ry
     convergence threshold     =      1.0E-09
     mixing beta               =       0.7000
     number of iterations used =            8  plain     mixing
     Exchange-correlation      =  SLA  PW   PBX  PBC ( 1  4  3  4 0 0)

     celldm(1)=  10.329553  celldm(2)=   0.000000  celldm(3)=   0.000000
     celldm(4)=   0.000000  celldm(5)=   0.000000  celldm(6)=   0.000000

     crystal axes: (cart. coord. in units of alat)
               a(1) = (   1.000000   0.000000   0.000000 )
               a(2) = (   0.000000   1.000000   0.000000 )
               a(3) = (   0.000000   0.000000   1.000000 )

     reciprocal axes: (cart. coord. in units 2 pi/alat)
               b(1) = (  1.000000  0.000000  0.000000 )
               b(2) = (  0.000000  1.000000  0.000000 )
               b(3) = (  0.000000  0.000000  1.000000 )

     PseudoPot. # 1 for Si read from file:
     /home/uezono/pseudo/Si.pbe-n-kjpaw_psl.0.1.UPF
     MD5 check sum: 0810ef13ebffcf5dbabd57b297315270
     Pseudo is Projector augmented-wave + core cor, Zval =  4.0
     Generated using "atomic" code by A. Dal Corso  v.5.0.2 svn rev. 9415
     Shape of augmentation charge: PSQ
     Using radial grid of 1141 points,  4 beta functions with:
                l(1) =   0
                l(2) =   0
                l(3) =   1
                l(4) =   1
     Q(r) pseudized with 0 coefficients

     atomic species   valence    mass     pseudopotential
        Si             4.00    28.08550     Si( 1.00)

      2 Sym. Ops. (no inversion) found ( 1 have fractional translation)

   Cartesian axes

     site n.     atom                  positions (alat units)
         1           Si  tau(   1) = (   0.8808086   0.8750000   0.8750000  )
         2           Si  tau(   2) = (   0.8750000   0.3750000   0.3750000  )
         3           Si  tau(   3) = (   0.3750000   0.8750000   0.3750000  )
         4           Si  tau(   4) = (   0.3750000   0.3750000   0.8750000  )
         5           Si  tau(   5) = (   0.1250000   0.1250000   0.1250000  )
         6           Si  tau(   6) = (   0.1250000   0.6250000   0.6250000  )
         7           Si  tau(   7) = (   0.6308086   0.1250000   0.6250000  )
         8           Si  tau(   8) = (   0.6250000   0.6250000   0.1250000  )

     number of k points=    20
                       cart. coord. in units 2pi/alat
        k(    1) = (   0.1250000   0.1250000   0.1250000), wk =   0.1250000
        k(    2) = (   0.1250000   0.1250000   0.3750000), wk =   0.1250000
        k(    3) = (   0.1250000   0.3750000   0.3750000), wk =   0.1250000
        k(    4) = (   0.3750000   0.3750000   0.3750000), wk =   0.1250000
        k(    5) = (  -0.1250000   0.1250000  -0.1250000), wk =   0.0625000
        k(    6) = (   0.1250000   0.1250000  -0.1250000), wk =   0.0625000
        k(    7) = (  -0.1250000   0.1250000  -0.3750000), wk =   0.1250000
        k(    8) = (   0.1250000  -0.1250000  -0.3750000), wk =   0.1250000
        k(    9) = (   0.1250000   0.1250000  -0.3750000), wk =   0.1250000
        k(   10) = (   0.3750000  -0.1250000   0.1250000), wk =   0.0625000
        k(   11) = (  -0.3750000  -0.1250000  -0.1250000), wk =   0.1250000
        k(   12) = (   0.3750000   0.1250000  -0.1250000), wk =   0.0625000
        k(   13) = (  -0.1250000   0.3750000  -0.3750000), wk =   0.0625000
        k(   14) = (   0.3750000   0.1250000  -0.3750000), wk =   0.1250000
        k(   15) = (  -0.3750000  -0.1250000  -0.3750000), wk =   0.1250000
        k(   16) = (   0.3750000  -0.1250000   0.3750000), wk =   0.1250000
        k(   17) = (  -0.3750000   0.1250000   0.3750000), wk =   0.1250000
        k(   18) = (   0.1250000   0.3750000  -0.3750000), wk =   0.0625000
        k(   19) = (  -0.3750000   0.3750000  -0.3750000), wk =   0.0625000
        k(   20) = (   0.3750000   0.3750000  -0.3750000), wk =   0.0625000

     Initial potential from superposition of free atoms

     starting charge   31.99553, renormalised to   32.00000
     Starting wfc are   32 randomized atomic wfcs
     Checking if some PAW data can be deallocated...

     Self-consistent Calculation

     iteration #  1     ecut=    70.00 Ry     beta= 0.70
     Davidson diagonalization with overlap
     ethr =  1.00E-02,  avg # of iterations =  2.0

     Threshold (ethr) on eigenvalues was too large:
     Diagonalizing with lowered threshold

     Davidson diagonalization with overlap
     ethr =  6.98E-04,  avg # of iterations =  1.0

     total energy              =    -373.80724574 Ry
     Harris-Foulkes estimate   =    -373.85932965 Ry
     estimated scf accuracy    <       0.22081284 Ry

[...]

     total energy              =    -373.81637843 Ry
     Harris-Foulkes estimate   =    -373.81637845 Ry
     estimated scf accuracy    <          7.3E-09 Ry

     iteration #  8     ecut=    70.00 Ry     beta= 0.70
     Davidson diagonalization with overlap
     ethr =  2.29E-11,  avg # of iterations =  2.8

     End of self-consistent calculation

          k = 0.1250 0.1250 0.1250 ( 10891 PWs)   bands (ev):

    -5.6259  -2.6307  -2.5898  -2.5489  -0.8176  -0.7803  -0.7434   2.6206
     2.6392   2.6580   3.3564   3.3717   3.3883   4.4145   5.7234   5.7242

[...]

          k =-0.1250 0.1250-0.1250 ( 10891 PWs)   bands (ev):

[...]

          k =-0.3750 0.3750-0.3750 ( 10927 PWs)   bands (ev):

[...]

          k = 0.3750 0.3750-0.3750 ( 10927 PWs)   bands (ev):

    -4.1660  -3.4562  -3.4557  -3.4527  -0.6641  -0.6624  -0.6619   0.1280
     3.7393   3.7554   3.7734   4.4437   4.4709   4.4899   4.9364   4.9438

     highest occupied level (ev):     5.7253

!    total energy              =    -373.81637843 Ry
     Harris-Foulkes estimate   =    -373.81637843 Ry
     estimated scf accuracy    <          3.2E-10 Ry

     total all-electron energy =     -4640.583323 Ry

     The total energy is the sum of the following terms:

     one-electron contribution =      22.32296968 Ry
     hartree contribution      =       4.46389465 Ry
     xc contribution           =     -48.93018130 Ry
     ewald contribution        =     -66.74858368 Ry
     one-center paw contrib.   =    -284.92447778 Ry

     convergence has been achieved in   8 iterations

     Forces acting on atoms (cartesian axes, Ry/au):

     atom    1 type  1   force =    -0.01223621   -0.00271583    0.00271583
     atom    2 type  1   force =     0.00197010    0.00294304   -0.00294304
     atom    3 type  1   force =     0.00507172    0.00271626    0.00272061
     atom    4 type  1   force =     0.00507172   -0.00272061   -0.00271626
     atom    5 type  1   force =     0.00518851    0.00294839    0.00294399
     atom    6 type  1   force =     0.00518851   -0.00294399   -0.00294839
     atom    7 type  1   force =    -0.01211918   -0.00294835    0.00294835
     atom    8 type  1   force =     0.00186484    0.00272110   -0.00272110

     Total force =     0.023190     Total SCF correction =     0.000007

     Computing stress (Cartesian axis) and pressure

          total   stress  (Ry/bohr**3)                   (kbar)     P=    0.24
   0.00000032   0.00000028  -0.00000028          0.05      0.04     -0.04
   0.00000028   0.00000232   0.00000051          0.04      0.34      0.08
  -0.00000028   0.00000051   0.00000232         -0.04      0.08      0.34

     General routines

     Parallel routines

   This run was terminated on:  11:52:39  24Oct2021

   JOB DONE.
Note: The following floating-point exceptions are signalling: IEEE_UNDERFLOW_FLAG IEEE_DENORMAL